100
300
30
0 0
10 95
40 74
25 92
79 38
44 26
13 56
58 76
10 59
92 37
25 49
27 91
76 25
64 28
55 6
27 92
60 100
0 86
37 42
83 1
2 13
62 8
54 54
14 93
58 48
29 16
60 98
95 44
87 32
64 23
76 72
0 0
30
40
70
70
30
60
40
30
60
70
40
70
50
70
40
30
40
70
70
30
60
40
30
60
70
40
70
50
70
40
